(set-logic ALL)
(declare-const GEN1 Int)
(declare-const GEN2 Int)
(declare-const GEN3 Int)
(declare-const GEN4 Int)
(declare-const GEN5 Int)
(declare-const GEN6 Int)
(declare-const GEN7 Int)
(declare-const GEN8 Int)
(declare-const GEN9 Int)
(declare-const BAV10 Bool)
(declare-const BAV11 Bool)
(declare-const BAV12 Bool)
(declare-const BAV13 Bool)
(declare-const BAV14 Bool)
(declare-const BAV15 Bool)
(declare-const BAV16 Bool)
(declare-const BAV17 Bool)
(declare-const BAV18 Bool)
(declare-const BAV19 Bool)
(declare-const BAV20 Bool)
(declare-const BAV21 Bool)
(declare-fun x () Int)
(declare-fun y () Int)
(assert (or (= x GEN1) (= x GEN2) (= x GEN3) (= x GEN4) (= x GEN5)))
(assert (or (= y GEN6) (= y GEN7) (= y GEN8) (= y GEN9)))
(assert (= (* x x) (* y y y)))
(assert (= BAV10 (or (= x GEN1) (= x GEN2) (= x GEN3) (= x GEN4) (= x GEN5))))
(assert (= BAV11 (= x GEN1)))
(assert (= BAV12 (= x GEN2)))
(assert (= BAV13 (= x GEN3)))
(assert (= BAV14 (= x GEN4)))
(assert (= BAV15 (= x GEN5)))
(assert (= BAV16 (or (= y GEN6) (= y GEN7) (= y GEN8) (= y GEN9))))
(assert (= BAV17 (= y GEN6)))
(assert (= BAV18 (= y GEN7)))
(assert (= BAV19 (= y GEN8)))
(assert (= BAV20 (= y GEN9)))
(assert (= BAV21 (= (* x x) (* y y y))))
(check-sat)
(get-model)